p cnf 17 20
-14 11 6 0
3 8 17 0
-4 -13 -15 0
-11 14 2 0
10 9 17 0
17 3 10 0
-1 -2 -3 -4 -5 -6 -7 -8 -9 -10 -11 -12 -13 -14 -15 -16 -17 0
-12 -9 11 0
15 12 -5 0
-13 -10 5 0
-8 -17 -12 0
12 7 -1 0
5 -9 -13 0
1 2 3 4 5 6 7 8 9 10 11 12 13 14 15 16 17 0
-3 10 -17 0
11 -10 1 0
12 12 -14 0
-5 14 -9 0
-2 9 8 0
5 -5 -5 0
